row=10;
column=10;
Board=[|2,3,3,3,4,5,2,5,4,4|2,3,3,3,8,2,2,8,5,7|3,2,2,2,4,4,5,5,6,5|3,2,2,2,8,8,4,4,6,5|3,2,2,2,3,5,6,8,6,5|6,7,6,6,1,1,1,4,4,4|7,5,5,7,1,1,1,4,4,4|8,6,5,8,3,3,5,1,1,1|8,5,7,3,3,3,7,1,1,1|2,6,5,7,7,4,4,1,1,1|];
right = [12,2,23,0,8,10,7,8,1,9];
bottom = [28,6,5,2,4,9,0,0,10,16];
